Minimize
	value: tt

Subject to
tt + 1000 s_1_1 > 0.0
tt - t_1_1 - 1000.279724 s_1_1  + 0.279724 s_1_7  > -999.630056
tt + 1000 s_2_1 > 0.0
tt - t_2_1 - 1000.273460 s_2_1  + 0.273460 s_2_7  > -996.093611
tt + 1000 s_1_2 > 0.0
tt - t_1_2 - 1000.279724 s_1_2  + 0.279724 s_1_8  > -999.540000
tt + 1000 s_2_2 > 0.0
tt - t_2_2 - 1000.273460 s_2_2  + 0.273460 s_2_8  > -995.821311
tt + 1000 s_1_3 > 0.0
tt - t_1_3 - 1000.279724 s_1_3  + 0.279724 s_1_8  > -999.479933
tt + 1000 s_2_3 > 0.0
tt - t_2_3 - 1000.273460 s_2_3  + 0.273460 s_2_8  > -994.438719
tt + 1000 s_1_4 > 0.0
tt - t_1_4 - 1000.559447 s_1_4  + 0.279724 s_1_8  + 0.279724 s_1_3  > -999.715144
tt + 1000 s_2_4 > 0.0
tt - t_2_4 - 1000.546920 s_2_4  + 0.273460 s_2_8  + 0.273460 s_2_3  > -996.180664
tt + 1000 s_1_5 > 0.0
tt - t_1_5 - 1000.559447 s_1_5  + 0.279724 s_1_7  + 0.279724 s_1_8  > -999.768700
tt + 1000 s_2_5 > 0.0
tt - t_2_5 - 1000.546920 s_2_5  + 0.273460 s_2_7  + 0.273460 s_2_8  > -996.999742
tt + 1000 s_1_6 > 0.0
tt - t_1_6 - 1001.398618 s_1_6  + 0.279724 s_1_3  + 0.279724 s_1_2  + 0.279724 s_1_4  + 0.279724 s_1_5  + 0.279724 s_1_1  > -999.929900
tt + 1000 s_2_6 > 0.0
tt - t_2_6 - 1001.367299 s_2_6  + 0.273460 s_2_3  + 0.273460 s_2_2  + 0.273460 s_2_4  + 0.273460 s_2_5  + 0.273460 s_2_1  > -997.481111
tt + 1000 s_1_7 > 0.0
tt - t_1_7 - 1000.000000 s_1_7  > -998.984200
tt + 1000 s_2_7 > 0.0
tt - t_2_7 - 1000.000000 s_2_7  > -987.979619
tt + 1000 s_1_8 > 0.0
tt - t_1_8 - 1000.000000 s_1_8  > -999.513900
tt + 1000 s_2_8 > 0.0
tt - t_2_8 - 1000.000000 s_2_8  > -997.588889
s_1_1 + s_2_1 = 1
s_1_2 + s_2_2 = 1
s_1_3 + s_2_3 = 1
s_1_4 + s_2_4 = 1
s_1_5 + s_2_5 = 1
s_1_6 + s_2_6 = 1
s_1_7 + s_2_7 = 1
s_1_8 + s_2_8 = 1
s_1_1 + s_1_2 + 1000 r_1_1_2 >= 2
- s_1_1 - s_1_2 - 1000 r_1_1_2 >= -1001
t_1_1 - t_1_2 - 1000.000000 u_1_1_2 - 0.279724 s_1_2  + 0.279724 s_1_8  + 2000.000000 r_1_1_2 > -999.540000
s_2_1 + s_2_2 + 1000 r_2_1_2 >= 2
- s_2_1 - s_2_2 - 1000 r_2_1_2 >= -1001
t_2_1 - t_2_2 - 1000.000000 u_2_1_2 - 0.273460 s_2_2  + 0.273460 s_2_8  + 2000.000000 r_2_1_2 > -995.821311
s_1_1 + s_1_3 + 1000 r_1_1_3 >= 2
- s_1_1 - s_1_3 - 1000 r_1_1_3 >= -1001
t_1_1 - t_1_3 - 1000.000000 u_1_1_3 - 0.279724 s_1_3  + 0.279724 s_1_8  + 2000.000000 r_1_1_3 > -999.479933
s_2_1 + s_2_3 + 1000 r_2_1_3 >= 2
- s_2_1 - s_2_3 - 1000 r_2_1_3 >= -1001
t_2_1 - t_2_3 - 1000.000000 u_2_1_3 - 0.273460 s_2_3  + 0.273460 s_2_8  + 2000.000000 r_2_1_3 > -994.438719
s_1_1 + s_1_4 + 1000 r_1_1_4 >= 2
- s_1_1 - s_1_4 - 1000 r_1_1_4 >= -1001
t_1_1 - t_1_4 - 1000.000000 u_1_1_4 - 0.559447 s_1_4  + 0.279724 s_1_8  + 0.279724 s_1_3  + 2000.000000 r_1_1_4 > -999.715144
s_2_1 + s_2_4 + 1000 r_2_1_4 >= 2
- s_2_1 - s_2_4 - 1000 r_2_1_4 >= -1001
t_2_1 - t_2_4 - 1000.000000 u_2_1_4 - 0.546920 s_2_4  + 0.273460 s_2_8  + 0.273460 s_2_3  + 2000.000000 r_2_1_4 > -996.180664
s_1_1 + s_1_5 + 1000 r_1_1_5 >= 2
- s_1_1 - s_1_5 - 1000 r_1_1_5 >= -1001
t_1_1 - t_1_5 - 1000.000000 u_1_1_5 - 0.559447 s_1_5  + 0.279724 s_1_7  + 0.279724 s_1_8  + 2000.000000 r_1_1_5 > -999.768700
s_2_1 + s_2_5 + 1000 r_2_1_5 >= 2
- s_2_1 - s_2_5 - 1000 r_2_1_5 >= -1001
t_2_1 - t_2_5 - 1000.000000 u_2_1_5 - 0.546920 s_2_5  + 0.273460 s_2_7  + 0.273460 s_2_8  + 2000.000000 r_2_1_5 > -996.999742
t_1_6 - t_1_1 - 1000.279724 s_1_1  + 0.279724 s_1_7  > -999.630056
t_1_6 - t_2_1 - 1000.273460 s_2_1  + 0.273460 s_2_7  > -996.093611
t_2_6 - t_1_1 - 1000.279724 s_1_1  + 0.279724 s_1_7  > -999.630056
t_2_6 - t_2_1 - 1000.273460 s_2_1  + 0.273460 s_2_7  > -996.093611
t_1_1 - t_1_7 - 1000.000000 s_1_7  > -998.984200
t_1_1 - t_2_7 - 1000.000000 s_2_7  > -987.979619
t_2_1 - t_1_7 - 1000.000000 s_1_7  > -998.984200
t_2_1 - t_2_7 - 1000.000000 s_2_7  > -987.979619
s_1_1 + s_1_8 + 1000 r_1_1_8 >= 2
- s_1_1 - s_1_8 - 1000 r_1_1_8 >= -1001
t_1_1 - t_1_8 - 1000.000000 u_1_1_8 - 0.000000 s_1_8  + 2000.000000 r_1_1_8 > -999.513900
s_2_1 + s_2_8 + 1000 r_2_1_8 >= 2
- s_2_1 - s_2_8 - 1000 r_2_1_8 >= -1001
t_2_1 - t_2_8 - 1000.000000 u_2_1_8 - 0.000000 s_2_8  + 2000.000000 r_2_1_8 > -997.588889
s_1_2 + s_1_1 + 1000 r_1_1_2 >= 2
- s_1_2 - s_1_1 - 1000 r_1_1_2 >= -1001
t_1_2 - t_1_1 + 1000.000000 u_1_1_2 - 0.279724 s_1_1  + 0.279724 s_1_7  + 2000.000000 r_1_1_2 > 0.369944
s_2_2 + s_2_1 + 1000 r_2_1_2 >= 2
- s_2_2 - s_2_1 - 1000 r_2_1_2 >= -1001
t_2_2 - t_2_1 + 1000.000000 u_2_1_2 - 0.273460 s_2_1  + 0.273460 s_2_7  + 2000.000000 r_2_1_2 > 3.906389
s_1_2 + s_1_3 + 1000 r_1_2_3 >= 2
- s_1_2 - s_1_3 - 1000 r_1_2_3 >= -1001
t_1_2 - t_1_3 - 1000.000000 u_1_2_3 - 0.279724 s_1_3  + 0.279724 s_1_8  + 2000.000000 r_1_2_3 > -999.479933
s_2_2 + s_2_3 + 1000 r_2_2_3 >= 2
- s_2_2 - s_2_3 - 1000 r_2_2_3 >= -1001
t_2_2 - t_2_3 - 1000.000000 u_2_2_3 - 0.273460 s_2_3  + 0.273460 s_2_8  + 2000.000000 r_2_2_3 > -994.438719
s_1_2 + s_1_4 + 1000 r_1_2_4 >= 2
- s_1_2 - s_1_4 - 1000 r_1_2_4 >= -1001
t_1_2 - t_1_4 - 1000.000000 u_1_2_4 - 0.559447 s_1_4  + 0.279724 s_1_8  + 0.279724 s_1_3  + 2000.000000 r_1_2_4 > -999.715144
s_2_2 + s_2_4 + 1000 r_2_2_4 >= 2
- s_2_2 - s_2_4 - 1000 r_2_2_4 >= -1001
t_2_2 - t_2_4 - 1000.000000 u_2_2_4 - 0.546920 s_2_4  + 0.273460 s_2_8  + 0.273460 s_2_3  + 2000.000000 r_2_2_4 > -996.180664
s_1_2 + s_1_5 + 1000 r_1_2_5 >= 2
- s_1_2 - s_1_5 - 1000 r_1_2_5 >= -1001
t_1_2 - t_1_5 - 1000.000000 u_1_2_5 - 0.559447 s_1_5  + 0.279724 s_1_7  + 0.279724 s_1_8  + 2000.000000 r_1_2_5 > -999.768700
s_2_2 + s_2_5 + 1000 r_2_2_5 >= 2
- s_2_2 - s_2_5 - 1000 r_2_2_5 >= -1001
t_2_2 - t_2_5 - 1000.000000 u_2_2_5 - 0.546920 s_2_5  + 0.273460 s_2_7  + 0.273460 s_2_8  + 2000.000000 r_2_2_5 > -996.999742
t_1_6 - t_1_2 - 1000.279724 s_1_2  + 0.279724 s_1_8  > -999.540000
t_1_6 - t_2_2 - 1000.273460 s_2_2  + 0.273460 s_2_8  > -995.821311
t_2_6 - t_1_2 - 1000.279724 s_1_2  + 0.279724 s_1_8  > -999.540000
t_2_6 - t_2_2 - 1000.273460 s_2_2  + 0.273460 s_2_8  > -995.821311
s_1_2 + s_1_7 + 1000 r_1_2_7 >= 2
- s_1_2 - s_1_7 - 1000 r_1_2_7 >= -1001
t_1_2 - t_1_7 - 1000.000000 u_1_2_7 - 0.000000 s_1_7  + 2000.000000 r_1_2_7 > -998.984200
s_2_2 + s_2_7 + 1000 r_2_2_7 >= 2
- s_2_2 - s_2_7 - 1000 r_2_2_7 >= -1001
t_2_2 - t_2_7 - 1000.000000 u_2_2_7 - 0.000000 s_2_7  + 2000.000000 r_2_2_7 > -987.979619
t_1_2 - t_1_8 - 1000.000000 s_1_8  > -999.513900
t_1_2 - t_2_8 - 1000.000000 s_2_8  > -997.588889
t_2_2 - t_1_8 - 1000.000000 s_1_8  > -999.513900
t_2_2 - t_2_8 - 1000.000000 s_2_8  > -997.588889
s_1_3 + s_1_1 + 1000 r_1_1_3 >= 2
- s_1_3 - s_1_1 - 1000 r_1_1_3 >= -1001
t_1_3 - t_1_1 + 1000.000000 u_1_1_3 - 0.279724 s_1_1  + 0.279724 s_1_7  + 2000.000000 r_1_1_3 > 0.369944
s_2_3 + s_2_1 + 1000 r_2_1_3 >= 2
- s_2_3 - s_2_1 - 1000 r_2_1_3 >= -1001
t_2_3 - t_2_1 + 1000.000000 u_2_1_3 - 0.273460 s_2_1  + 0.273460 s_2_7  + 2000.000000 r_2_1_3 > 3.906389
s_1_3 + s_1_2 + 1000 r_1_2_3 >= 2
- s_1_3 - s_1_2 - 1000 r_1_2_3 >= -1001
t_1_3 - t_1_2 + 1000.000000 u_1_2_3 - 0.279724 s_1_2  + 0.279724 s_1_8  + 2000.000000 r_1_2_3 > 0.460000
s_2_3 + s_2_2 + 1000 r_2_2_3 >= 2
- s_2_3 - s_2_2 - 1000 r_2_2_3 >= -1001
t_2_3 - t_2_2 + 1000.000000 u_2_2_3 - 0.273460 s_2_2  + 0.273460 s_2_8  + 2000.000000 r_2_2_3 > 4.178689
t_1_4 - t_1_3 - 1000.279724 s_1_3  + 0.279724 s_1_8  > -999.479933
t_1_4 - t_2_3 - 1000.273460 s_2_3  + 0.273460 s_2_8  > -994.438719
t_2_4 - t_1_3 - 1000.279724 s_1_3  + 0.279724 s_1_8  > -999.479933
t_2_4 - t_2_3 - 1000.273460 s_2_3  + 0.273460 s_2_8  > -994.438719
s_1_3 + s_1_5 + 1000 r_1_3_5 >= 2
- s_1_3 - s_1_5 - 1000 r_1_3_5 >= -1001
t_1_3 - t_1_5 - 1000.000000 u_1_3_5 - 0.559447 s_1_5  + 0.279724 s_1_7  + 0.279724 s_1_8  + 2000.000000 r_1_3_5 > -999.768700
s_2_3 + s_2_5 + 1000 r_2_3_5 >= 2
- s_2_3 - s_2_5 - 1000 r_2_3_5 >= -1001
t_2_3 - t_2_5 - 1000.000000 u_2_3_5 - 0.546920 s_2_5  + 0.273460 s_2_7  + 0.273460 s_2_8  + 2000.000000 r_2_3_5 > -996.999742
t_1_6 - t_1_3 - 1000.279724 s_1_3  + 0.279724 s_1_8  > -999.479933
t_1_6 - t_2_3 - 1000.273460 s_2_3  + 0.273460 s_2_8  > -994.438719
t_2_6 - t_1_3 - 1000.279724 s_1_3  + 0.279724 s_1_8  > -999.479933
t_2_6 - t_2_3 - 1000.273460 s_2_3  + 0.273460 s_2_8  > -994.438719
s_1_3 + s_1_7 + 1000 r_1_3_7 >= 2
- s_1_3 - s_1_7 - 1000 r_1_3_7 >= -1001
t_1_3 - t_1_7 - 1000.000000 u_1_3_7 - 0.000000 s_1_7  + 2000.000000 r_1_3_7 > -998.984200
s_2_3 + s_2_7 + 1000 r_2_3_7 >= 2
- s_2_3 - s_2_7 - 1000 r_2_3_7 >= -1001
t_2_3 - t_2_7 - 1000.000000 u_2_3_7 - 0.000000 s_2_7  + 2000.000000 r_2_3_7 > -987.979619
t_1_3 - t_1_8 - 1000.000000 s_1_8  > -999.513900
t_1_3 - t_2_8 - 1000.000000 s_2_8  > -997.588889
t_2_3 - t_1_8 - 1000.000000 s_1_8  > -999.513900
t_2_3 - t_2_8 - 1000.000000 s_2_8  > -997.588889
s_1_4 + s_1_1 + 1000 r_1_1_4 >= 2
- s_1_4 - s_1_1 - 1000 r_1_1_4 >= -1001
t_1_4 - t_1_1 + 1000.000000 u_1_1_4 - 0.279724 s_1_1  + 0.279724 s_1_7  + 2000.000000 r_1_1_4 > 0.369944
s_2_4 + s_2_1 + 1000 r_2_1_4 >= 2
- s_2_4 - s_2_1 - 1000 r_2_1_4 >= -1001
t_2_4 - t_2_1 + 1000.000000 u_2_1_4 - 0.273460 s_2_1  + 0.273460 s_2_7  + 2000.000000 r_2_1_4 > 3.906389
s_1_4 + s_1_2 + 1000 r_1_2_4 >= 2
- s_1_4 - s_1_2 - 1000 r_1_2_4 >= -1001
t_1_4 - t_1_2 + 1000.000000 u_1_2_4 - 0.279724 s_1_2  + 0.279724 s_1_8  + 2000.000000 r_1_2_4 > 0.460000
s_2_4 + s_2_2 + 1000 r_2_2_4 >= 2
- s_2_4 - s_2_2 - 1000 r_2_2_4 >= -1001
t_2_4 - t_2_2 + 1000.000000 u_2_2_4 - 0.273460 s_2_2  + 0.273460 s_2_8  + 2000.000000 r_2_2_4 > 4.178689
s_1_4 + s_1_5 + 1000 r_1_4_5 >= 2
- s_1_4 - s_1_5 - 1000 r_1_4_5 >= -1001
t_1_4 - t_1_5 - 1000.000000 u_1_4_5 - 0.559447 s_1_5  + 0.279724 s_1_7  + 0.279724 s_1_8  + 2000.000000 r_1_4_5 > -999.768700
s_2_4 + s_2_5 + 1000 r_2_4_5 >= 2
- s_2_4 - s_2_5 - 1000 r_2_4_5 >= -1001
t_2_4 - t_2_5 - 1000.000000 u_2_4_5 - 0.546920 s_2_5  + 0.273460 s_2_7  + 0.273460 s_2_8  + 2000.000000 r_2_4_5 > -996.999742
t_1_6 - t_1_4 - 1000.559447 s_1_4  + 0.279724 s_1_8  + 0.279724 s_1_3  > -999.715144
t_1_6 - t_2_4 - 1000.546920 s_2_4  + 0.273460 s_2_8  + 0.273460 s_2_3  > -996.180664
t_2_6 - t_1_4 - 1000.559447 s_1_4  + 0.279724 s_1_8  + 0.279724 s_1_3  > -999.715144
t_2_6 - t_2_4 - 1000.546920 s_2_4  + 0.273460 s_2_8  + 0.273460 s_2_3  > -996.180664
s_1_4 + s_1_7 + 1000 r_1_4_7 >= 2
- s_1_4 - s_1_7 - 1000 r_1_4_7 >= -1001
t_1_4 - t_1_7 - 1000.000000 u_1_4_7 - 0.000000 s_1_7  + 2000.000000 r_1_4_7 > -998.984200
s_2_4 + s_2_7 + 1000 r_2_4_7 >= 2
- s_2_4 - s_2_7 - 1000 r_2_4_7 >= -1001
t_2_4 - t_2_7 - 1000.000000 u_2_4_7 - 0.000000 s_2_7  + 2000.000000 r_2_4_7 > -987.979619
t_1_4 - t_1_8 - 1000.000000 s_1_8  > -999.513900
t_1_4 - t_2_8 - 1000.000000 s_2_8  > -997.588889
t_2_4 - t_1_8 - 1000.000000 s_1_8  > -999.513900
t_2_4 - t_2_8 - 1000.000000 s_2_8  > -997.588889
s_1_5 + s_1_1 + 1000 r_1_1_5 >= 2
- s_1_5 - s_1_1 - 1000 r_1_1_5 >= -1001
t_1_5 - t_1_1 + 1000.000000 u_1_1_5 - 0.279724 s_1_1  + 0.279724 s_1_7  + 2000.000000 r_1_1_5 > 0.369944
s_2_5 + s_2_1 + 1000 r_2_1_5 >= 2
- s_2_5 - s_2_1 - 1000 r_2_1_5 >= -1001
t_2_5 - t_2_1 + 1000.000000 u_2_1_5 - 0.273460 s_2_1  + 0.273460 s_2_7  + 2000.000000 r_2_1_5 > 3.906389
s_1_5 + s_1_2 + 1000 r_1_2_5 >= 2
- s_1_5 - s_1_2 - 1000 r_1_2_5 >= -1001
t_1_5 - t_1_2 + 1000.000000 u_1_2_5 - 0.279724 s_1_2  + 0.279724 s_1_8  + 2000.000000 r_1_2_5 > 0.460000
s_2_5 + s_2_2 + 1000 r_2_2_5 >= 2
- s_2_5 - s_2_2 - 1000 r_2_2_5 >= -1001
t_2_5 - t_2_2 + 1000.000000 u_2_2_5 - 0.273460 s_2_2  + 0.273460 s_2_8  + 2000.000000 r_2_2_5 > 4.178689
s_1_5 + s_1_3 + 1000 r_1_3_5 >= 2
- s_1_5 - s_1_3 - 1000 r_1_3_5 >= -1001
t_1_5 - t_1_3 + 1000.000000 u_1_3_5 - 0.279724 s_1_3  + 0.279724 s_1_8  + 2000.000000 r_1_3_5 > 0.520067
s_2_5 + s_2_3 + 1000 r_2_3_5 >= 2
- s_2_5 - s_2_3 - 1000 r_2_3_5 >= -1001
t_2_5 - t_2_3 + 1000.000000 u_2_3_5 - 0.273460 s_2_3  + 0.273460 s_2_8  + 2000.000000 r_2_3_5 > 5.561281
s_1_5 + s_1_4 + 1000 r_1_4_5 >= 2
- s_1_5 - s_1_4 - 1000 r_1_4_5 >= -1001
t_1_5 - t_1_4 + 1000.000000 u_1_4_5 - 0.559447 s_1_4  + 0.279724 s_1_8  + 0.279724 s_1_3  + 2000.000000 r_1_4_5 > 0.284856
s_2_5 + s_2_4 + 1000 r_2_4_5 >= 2
- s_2_5 - s_2_4 - 1000 r_2_4_5 >= -1001
t_2_5 - t_2_4 + 1000.000000 u_2_4_5 - 0.546920 s_2_4  + 0.273460 s_2_8  + 0.273460 s_2_3  + 2000.000000 r_2_4_5 > 3.819336
t_1_6 - t_1_5 - 1000.559447 s_1_5  + 0.279724 s_1_7  + 0.279724 s_1_8  > -999.768700
t_1_6 - t_2_5 - 1000.546920 s_2_5  + 0.273460 s_2_7  + 0.273460 s_2_8  > -996.999742
t_2_6 - t_1_5 - 1000.559447 s_1_5  + 0.279724 s_1_7  + 0.279724 s_1_8  > -999.768700
t_2_6 - t_2_5 - 1000.546920 s_2_5  + 0.273460 s_2_7  + 0.273460 s_2_8  > -996.999742
t_1_5 - t_1_7 - 1000.000000 s_1_7  > -998.984200
t_1_5 - t_2_7 - 1000.000000 s_2_7  > -987.979619
t_2_5 - t_1_7 - 1000.000000 s_1_7  > -998.984200
t_2_5 - t_2_7 - 1000.000000 s_2_7  > -987.979619
t_1_5 - t_1_8 - 1000.000000 s_1_8  > -999.513900
t_1_5 - t_2_8 - 1000.000000 s_2_8  > -997.588889
t_2_5 - t_1_8 - 1000.000000 s_1_8  > -999.513900
t_2_5 - t_2_8 - 1000.000000 s_2_8  > -997.588889
s_1_7 + s_1_2 + 1000 r_1_2_7 >= 2
- s_1_7 - s_1_2 - 1000 r_1_2_7 >= -1001
t_1_7 - t_1_2 + 1000.000000 u_1_2_7 - 0.279724 s_1_2  + 0.279724 s_1_8  + 2000.000000 r_1_2_7 > 0.460000
s_2_7 + s_2_2 + 1000 r_2_2_7 >= 2
- s_2_7 - s_2_2 - 1000 r_2_2_7 >= -1001
t_2_7 - t_2_2 + 1000.000000 u_2_2_7 - 0.273460 s_2_2  + 0.273460 s_2_8  + 2000.000000 r_2_2_7 > 4.178689
s_1_7 + s_1_3 + 1000 r_1_3_7 >= 2
- s_1_7 - s_1_3 - 1000 r_1_3_7 >= -1001
t_1_7 - t_1_3 + 1000.000000 u_1_3_7 - 0.279724 s_1_3  + 0.279724 s_1_8  + 2000.000000 r_1_3_7 > 0.520067
s_2_7 + s_2_3 + 1000 r_2_3_7 >= 2
- s_2_7 - s_2_3 - 1000 r_2_3_7 >= -1001
t_2_7 - t_2_3 + 1000.000000 u_2_3_7 - 0.273460 s_2_3  + 0.273460 s_2_8  + 2000.000000 r_2_3_7 > 5.561281
s_1_7 + s_1_4 + 1000 r_1_4_7 >= 2
- s_1_7 - s_1_4 - 1000 r_1_4_7 >= -1001
t_1_7 - t_1_4 + 1000.000000 u_1_4_7 - 0.559447 s_1_4  + 0.279724 s_1_8  + 0.279724 s_1_3  + 2000.000000 r_1_4_7 > 0.284856
s_2_7 + s_2_4 + 1000 r_2_4_7 >= 2
- s_2_7 - s_2_4 - 1000 r_2_4_7 >= -1001
t_2_7 - t_2_4 + 1000.000000 u_2_4_7 - 0.546920 s_2_4  + 0.273460 s_2_8  + 0.273460 s_2_3  + 2000.000000 r_2_4_7 > 3.819336
s_1_7 + s_1_8 + 1000 r_1_7_8 >= 2
- s_1_7 - s_1_8 - 1000 r_1_7_8 >= -1001
t_1_7 - t_1_8 - 1000.000000 u_1_7_8 - 0.000000 s_1_8  + 2000.000000 r_1_7_8 > -999.513900
s_2_7 + s_2_8 + 1000 r_2_7_8 >= 2
- s_2_7 - s_2_8 - 1000 r_2_7_8 >= -1001
t_2_7 - t_2_8 - 1000.000000 u_2_7_8 - 0.000000 s_2_8  + 2000.000000 r_2_7_8 > -997.588889
s_1_8 + s_1_1 + 1000 r_1_1_8 >= 2
- s_1_8 - s_1_1 - 1000 r_1_1_8 >= -1001
t_1_8 - t_1_1 + 1000.000000 u_1_1_8 - 0.279724 s_1_1  + 0.279724 s_1_7  + 2000.000000 r_1_1_8 > 0.369944
s_2_8 + s_2_1 + 1000 r_2_1_8 >= 2
- s_2_8 - s_2_1 - 1000 r_2_1_8 >= -1001
t_2_8 - t_2_1 + 1000.000000 u_2_1_8 - 0.273460 s_2_1  + 0.273460 s_2_7  + 2000.000000 r_2_1_8 > 3.906389
s_1_8 + s_1_7 + 1000 r_1_7_8 >= 2
- s_1_8 - s_1_7 - 1000 r_1_7_8 >= -1001
t_1_8 - t_1_7 + 1000.000000 u_1_7_8 - 0.000000 s_1_7  + 2000.000000 r_1_7_8 > 1.015800
s_2_8 + s_2_7 + 1000 r_2_7_8 >= 2
- s_2_8 - s_2_7 - 1000 r_2_7_8 >= -1001
t_2_8 - t_2_7 + 1000.000000 u_2_7_8 - 0.000000 s_2_7  + 2000.000000 r_2_7_8 > 12.020381
Binary
s_1_1
s_2_1
s_1_2
s_2_2
s_1_3
s_2_3
s_1_4
s_2_4
s_1_5
s_2_5
s_1_6
s_2_6
s_1_7
s_2_7
s_1_8
s_2_8
u_1_1_2
r_1_1_2
u_2_1_2
r_2_1_2
u_1_1_3
r_1_1_3
u_2_1_3
r_2_1_3
u_1_1_4
r_1_1_4
u_2_1_4
r_2_1_4
u_1_1_5
r_1_1_5
u_2_1_5
r_2_1_5
u_1_1_8
r_1_1_8
u_2_1_8
r_2_1_8
u_1_2_3
r_1_2_3
u_2_2_3
r_2_2_3
u_1_2_4
r_1_2_4
u_2_2_4
r_2_2_4
u_1_2_5
r_1_2_5
u_2_2_5
r_2_2_5
u_1_2_7
r_1_2_7
u_2_2_7
r_2_2_7
u_1_3_5
r_1_3_5
u_2_3_5
r_2_3_5
u_1_3_7
r_1_3_7
u_2_3_7
r_2_3_7
u_1_4_5
r_1_4_5
u_2_4_5
r_2_4_5
u_1_4_7
r_1_4_7
u_2_4_7
r_2_4_7
u_1_7_8
r_1_7_8
u_2_7_8
r_2_7_8

End
